$molecule
1 1
N    -0.00000   1.09595    0.00008   
H    0.00000    2.10960    0.00014   
N    4.79696    1.18782    -0.00000  
N    -4.79696   1.18782    0.00004   
C    1.21802    -0.96235   -0.00007  
C    -1.21802   -0.96235   -0.00005  
C    1.21429    0.46357    0.00003   
C    -1.21429   0.46357    0.00005   
C    -0.00000   -1.63730   -0.00010  
C    2.48253    -1.62061   -0.00012  
C    -2.48253   -1.62061   -0.00009  
C    2.40167    1.19000    0.00007   
C    -2.40167   1.19000    0.00010   
C    3.62475    0.51701    0.00001   
C    -3.62475   0.51701    0.00006   
C    3.64356    -0.91566   -0.00009  
C    -3.64356   -0.91566   -0.00003  
H    -0.00000   -2.72484   -0.00017  
H    2.50369    -2.70615   -0.00019  
H    -2.50369   -2.70615   -0.00016  
H    2.37859    2.27606    0.00014   
H    -2.37859   2.27606    0.00017   
H    4.59990    -1.42894   -0.00013  
H    -4.59990   -1.42894   -0.00007  
H    4.83119    2.19629    0.00021   
H    5.68017    0.69999    0.00012   
H    -4.83119   2.19629    0.00033   
H    -5.68017   0.69999    0.00026   
$end

$rem
JOBTYPE  SP
METHOD  EOM-CCSD
BASIS  6-31+G(D)
SYMMETRY  FALSE
SYM_IGNORE  TRUE
SCF_ALGORITHM  DIIS
UNRESTRICTED  FALSE
GEN_SCFMAN  TRUE
SCF_GUESS  SAD
SCF_CONVERGENCE  8
MAX_SCF_CYCLES  200
EOM_DAVIDSON_CONVERGENCE  6
EOM_DAVIDSON_MAX_ITER  50
THRESH  14
MEM_TOTAL  322000
MEM_STATIC  2000
XC_GRID  000099000590
NL_GRID  1
EE_STATES  8
CC_TRANS_PROP  1
CC_MEMORY  320000
SOLVENT_METHOD  PCM
$end

$PCM
THEORY                     CPCM
METHOD                     SWIG
SOLVER                     INVERSION
HPOINTS                    302
HEAVYPOINTS                302
$END

$SOLVENT
DIELECTRIC                 32.63
$END
